RT is False
Default write of storage_offers_DA.csv just to have a file (but constraint should be inactive)
Reading model...
...model read.
creating competitive generators file...
...competitive generators recorded.
Loading data...
.. day-ahead data with real-time VRE data read.
Compiling instance...
...instance created.
Creating Offer Mitigation (model will solve as dispatch if TRUE)...
NOTE: storage offers will not be mitigated
...storage offer mitigation file created
Converting model to MPEC...
...converted
NOTE: initial MIP solve with only storage competitive to get feasible solution
Solving...

Welcome to IBM(R) ILOG(R) CPLEX(R) Interactive Optimizer 12.9.0.0
  with Simplex, Mixed Integer & Barrier Optimizers
5725-A06 5725-A29 5724-Y48 5724-Y49 5724-Y54 5724-Y55 5655-Y21
Copyright IBM Corp. 1988, 2019.  All Rights Reserved.

Type 'help' for a list of available commands.
Type 'help' followed by a command name for more
information on commands.

CPLEX> Logfile 'cplex.log' closed.
Logfile 'C:\Users\llavin\Desktop\test826\logs\tmp2s4ktlpu.cplex.log' open.
CPLEX> New value for parallel optimization mode: -1
CPLEX> New value for emphasis for MIP optimization: 1
CPLEX> New value for mixed integer optimality gap tolerance: 0.01
CPLEX> New value for integrality tolerance: 1e-12
CPLEX> New value for deterministic time limit in ticks: 75000
CPLEX> Problem 'C:\Users\llavin\Desktop\test826\logs\tmpdce2e8cw.pyomo.lp' read.
Read time = 0.23 sec. (13.92 ticks)
CPLEX> Problem name         : C:\Users\llavin\Desktop\test826\logs\tmpdce2e8cw.pyomo.lp
Objective sense      : Maximize
Variables            :   53809  [Nneg: 1,  Box: 22004,  Free: 4464,
                                 Binary: 27340]
Objective nonzeros   :    9029
Linear constraints   :  123253  [Less: 41346,  Greater: 59096,  Equal: 22811]
  Nonzeros           :  293217
  RHS nonzeros       :   67491

Variables            : Min LB: -5000.000        Max UB: 1000000.       
Objective nonzeros   : Min   : 0.1750000        Max   : 2500.000       
Linear constraints   :
  Nonzeros           : Min   : 0.1750000        Max   : 1000000.       
  RHS nonzeros       : Min   : 0.1750000        Max   : 1000000.       
CPLEX> CPXPARAM_Parallel                                -1
CPXPARAM_Emphasis_MIP                            1
CPXPARAM_DetTimeLimit                            75000
CPXPARAM_MIP_Tolerances_MIPGap                   0.01
CPXPARAM_MIP_Tolerances_Integrality              9.9999999999999998e-13
Tried aggregator 4 times.
MIP Presolve eliminated 88751 rows and 19054 columns.
MIP Presolve added 3372 rows and 0 columns.
MIP Presolve modified 24827 coefficients.
Aggregator did 12967 substitutions.
Reduced MIP has 24907 rows, 21232 columns, and 71650 nonzeros.
Reduced MIP has 8390 binaries, 0 generals, 0 SOSs, and 0 indicators.
Presolve time = 0.33 sec. (192.38 ticks)
Probing fixed 391 vars, tightened 3906 bounds.
Probing time = 0.06 sec. (19.06 ticks)
Tried aggregator 2 times.
MIP Presolve eliminated 881 rows and 786 columns.
MIP Presolve modified 3036 coefficients.
Aggregator did 35 substitutions.
Reduced MIP has 23991 rows, 20411 columns, and 68977 nonzeros.
Reduced MIP has 7999 binaries, 0 generals, 0 SOSs, and 0 indicators.
Presolve time = 0.11 sec. (89.52 ticks)
Probing fixed 0 vars, tightened 199 bounds.
Probing time = 0.14 sec. (21.95 ticks)
Clique table members: 45379.
MIP emphasis: integer feasibility.
MIP search method: dynamic search.
Parallel mode: opportunistic, using up to 32 threads.
Root relaxation solution time = 0.50 sec. (692.57 ticks)

        Nodes                                         Cuts/
   Node  Left     Objective  IInf  Best Integer    Best Bound    ItCnt     Gap

      0     0      -23.4052   162                    -23.4052     6106         
      0     0      -23.4052     6                    Cuts: 15     6111         
      0     0      -23.4052     6                     Cuts: 2     6113         
      0     0      -23.4052     4                   Covers: 1     6115         
      0    27    infeasible                       Impl Bds: 2     6446         
Elapsed time = 3.47 sec. (1645.98 ticks, tree = 0.06 MB, solutions = 0)
    506   201   -33753.6928    25                    -85.0443    12851         
    864   387  -193239.6466    24                    -85.0443    31064         
   1336   639    -1966.4899    14                    -85.0443    49291         
   1828   747  -625985.1069    25                    -85.0443    62839         
   2263   793   -12431.7688    45                    -85.0443    66451         
   2738   905    infeasible                          -85.0443    80826         
   3146  1228  -294155.6287    70                    -85.0443   110007         
   3562  1514    -5574.4215    24                    -85.0443   135436         
   3893  1454    infeasible                          -85.0443   131089         
   5141  2042    -7416.1733    47                    -85.0443   203814         
Elapsed time = 17.83 sec. (4751.30 ticks, tree = 47.56 MB, solutions = 0)
   6760  2239 -1442666.9274    43                    -85.0443   238027         
   8329  2406  -158509.5469    54                    -85.0443   309389         
   9492  2360   -46856.7354    79                    -85.0443   284962         
  10035  2467    infeasible                          -85.0443   346245         
* 10136  2396      integral     0      -85.0443      -85.0443   317988    0.00%

Cover cuts applied:  18
Implied bound cuts applied:  14
Flow cuts applied:  13
Gomory fractional cuts applied:  5

Root node processing (before b&c):
  Real time             =    2.42 sec. (1638.76 ticks)
Parallel b&c, 32 threads:
  Real time             =   26.14 sec. (7638.42 ticks)
  Sync time (average)   =    1.36 sec.
  Wait time (average)   =    0.00 sec.
                          ------------
Total (root+branch&cut) =   28.56 sec. (9277.18 ticks)

Solution pool: 1 solution saved.

MIP - Integer optimal solution:  Objective = -8.5044276395e+01
Solution time =   28.56 sec.  Iterations = 535339  Nodes = 10186
Deterministic time = 9277.33 ticks  (324.80 ticks/sec)

CPLEX> Incumbent solution written to file 'C:\Users\llavin\Desktop\test826\logs\tmpcb8nu80d.cplex.sol'.
CPLEX> NOTE: no warmstart specified for MIP iteration, default behavior is true
NOTE: resolving with all competitive generators using storage-only solution to warmstart
Solving...

Welcome to IBM(R) ILOG(R) CPLEX(R) Interactive Optimizer 12.9.0.0
  with Simplex, Mixed Integer & Barrier Optimizers
5725-A06 5725-A29 5724-Y48 5724-Y49 5724-Y54 5724-Y55 5655-Y21
Copyright IBM Corp. 1988, 2019.  All Rights Reserved.

Type 'help' for a list of available commands.
Type 'help' followed by a command name for more
information on commands.

CPLEX> Logfile 'cplex.log' closed.
Logfile 'C:\Users\llavin\Desktop\test826\logs\tmp2938c3vx.cplex.log' open.
CPLEX> New value for parallel optimization mode: -1
CPLEX> New value for emphasis for MIP optimization: 1
CPLEX> New value for mixed integer optimality gap tolerance: 0.01
CPLEX> New value for integrality tolerance: 1e-12
CPLEX> New value for deterministic time limit in ticks: 75000
CPLEX> Problem 'C:\Users\llavin\Desktop\test826\logs\tmplvh5cvom.pyomo.lp' read.
Read time = 0.24 sec. (13.94 ticks)
CPLEX> MIP start file 'C:\Users\llavin\Desktop\test826\logs\tmpvihomvkp.cplex.mst' read.
CPLEX> Problem name         : C:\Users\llavin\Desktop\test826\logs\tmplvh5cvom.pyomo.lp
Objective sense      : Maximize
Variables            :   54529  [Nneg: 1,  Box: 22724,  Free: 4464,
                                 Binary: 27340]
Objective nonzeros   :    9725
Linear constraints   :  123253  [Less: 41346,  Greater: 59096,  Equal: 22811]
  Nonzeros           :  293217
  RHS nonzeros       :   67491

Variables            : Min LB: -5000.000        Max UB: 1000000.       
Objective nonzeros   : Min   : 0.1750000        Max   : 2500.000       
Linear constraints   :
  Nonzeros           : Min   : 0.1750000        Max   : 1000000.       
  RHS nonzeros       : Min   : 0.1750000        Max   : 1000000.       
CPLEX> CPXPARAM_Parallel                                -1
CPXPARAM_Emphasis_MIP                            1
CPXPARAM_DetTimeLimit                            75000
CPXPARAM_MIP_Tolerances_MIPGap                   0.01
CPXPARAM_MIP_Tolerances_Integrality              9.9999999999999998e-13
Warning:  No solution found from 1 MIP starts.
Retaining values of one MIP start for possible repair.
Tried aggregator 4 times.
MIP Presolve eliminated 88751 rows and 19774 columns.
MIP Presolve added 3372 rows and 0 columns.
MIP Presolve modified 24827 coefficients.
Aggregator did 12967 substitutions.
Reduced MIP has 24907 rows, 21232 columns, and 71650 nonzeros.
Reduced MIP has 8390 binaries, 0 generals, 0 SOSs, and 0 indicators.
Presolve time = 0.31 sec. (192.79 ticks)
Probing fixed 391 vars, tightened 3906 bounds.
Probing time = 0.08 sec. (19.06 ticks)
Tried aggregator 2 times.
MIP Presolve eliminated 881 rows and 786 columns.
MIP Presolve modified 3036 coefficients.
Aggregator did 35 substitutions.
Reduced MIP has 23991 rows, 20411 columns, and 68977 nonzeros.
Reduced MIP has 7999 binaries, 0 generals, 0 SOSs, and 0 indicators.
Presolve time = 0.11 sec. (89.53 ticks)
Probing fixed 0 vars, tightened 199 bounds.
Probing time = 0.14 sec. (21.95 ticks)
Clique table members: 45379.
MIP emphasis: integer feasibility.
MIP search method: dynamic search.
Parallel mode: opportunistic, using up to 32 threads.
Root relaxation solution time = 0.48 sec. (689.54 ticks)

        Nodes                                         Cuts/
   Node  Left     Objective  IInf  Best Integer    Best Bound    ItCnt     Gap

      0     0    54896.2539   202                  54896.2539     6083         
      0     0    54696.4585    79                   Cuts: 102     6194         
      0     0    54460.2003    75                    Cuts: 43     6260         
      0     0    54343.0293    65                    Cuts: 28     6285         
Repair heuristic found nothing.
      0    12    50962.0286    61                     Cuts: 3     6399         
Elapsed time = 4.22 sec. (1837.57 ticks, tree = 0.02 MB, solutions = 0)
    647   232    44547.2085    25                  51802.7533     9004         
   1153   820    35449.4822    30                  51802.7533    19511         
   1780  1092    infeasible                        51802.7533    27656         
   2379  1358    22213.1383    37                  51788.9685    42301         
   3030  1864   -15105.1713    44                  51788.9685    65611         
   3572  1928    37377.5425    20                  51788.9685    67464         
*  4099  2120      integral     0    37182.7806    51788.9685    80240   39.28%
   4705   836        cutoff          37182.7806    51788.9685   111154   39.28%
   5387   708    43714.8101    40    37182.7806    51690.3040   129289   39.02%
   8475  1467    37278.5511    13    37182.7806    49313.9218   144442   32.63%
Elapsed time = 19.05 sec. (4914.49 ticks, tree = 15.62 MB, solutions = 1)
   8579  2041    infeasible          37182.7806    45669.7132   158453   22.82%
  10164   758    37804.1575    16    37182.7806    38018.1405   165739    2.25%
* 11197   923      integral     0    37368.5492    38018.1405   169690    1.74%
  14916  1307    37786.3010    22    37371.7161    37997.3961   179261    1.67%
  17195  2372    37760.7082    22    37371.7161    37920.4930   197526    1.47%

Clique cuts applied:  1
Cover cuts applied:  9
Implied bound cuts applied:  4
Flow cuts applied:  63
Mixed integer rounding cuts applied:  15
Gomory fractional cuts applied:  3

Root node processing (before b&c):
  Real time             =    2.63 sec. (1803.21 ticks)
Parallel b&c, 32 threads:
  Real time             =   35.41 sec. (9220.46 ticks)
  Sync time (average)   =    2.76 sec.
  Wait time (average)   =    0.23 sec.
                          ------------
Total (root+branch&cut) =   38.03 sec. (11023.68 ticks)

Solution pool: 19 solutions saved.

MIP - Integer optimal, tolerance (0.01/1e-06):  Objective =  3.7371716135e+04
Current MIP best bound =  3.7745406572e+04 (gap = 373.69, 1.00%)
Solution time =   38.05 sec.  Iterations = 201007  Nodes = 17315 (2465)
Deterministic time = 11023.83 ticks  (289.74 ticks/sec)

CPLEX> Incumbent solution written to file 'C:\Users\llavin\Desktop\test826\logs\tmp_yx6s724.cplex.sol'.
CPLEX> Exporting results... 
